p = 20; % number of prof.
s=2; % semesters
n =3; % number of room
ore = 8; % hours per day of teaching
days = 5; % days of teaching in a week
capAule =[100,150,200]; % capacity of rooms
k =5; % numeber of courses
numInseg=[| % Each item indicates the number of teachings in a semester
4,3|
2,5|
4,3|
5,5|
6,3|
|];

oreInsg = [4,2,4,5,3, 4,2,4,7,4 ,4,2,4,5,3, 4,5,4,3,4   ,4 ,5,4,5,3, 4,5,4,3,4 ,4,3,4,5,3, 4,6,4,3,4];

pInsg=[|
5,4,11,3,9,   7,13,20,15,18, 39,38,17,28,25, 31,33,27,26,24,|
2,32,21,40,37,  8,6,1,10,12, 36,35,22,30,29, 16,14,19,34,23,|
|];

numStud = 
[150,80,190,100,130, 50,50,70,190,120, 50,80,190,100,130, 150,50,70,190,120, 50,80,190,100,130, 50,50,70,190,120, 50,80,190,100,130, 50,50,70,190,120 ];